NAME : C-n20-k7
CAPACITY : 407
NODE_COORD_SECTION
1   435   208
2   156   412
3   357   313
4   280   375
5   369   323
6   295   252
7   319   488
8   200   493
9   495   408
10   322   370
11   205   268
12   412   383
13   429   110
14   476   247
15   430   83
16   358   166
17   296   270
18   391   134
19   277   139
20   168   303
DEMAND_SECTION
1   0
2   79
3   80
4   23
5   73
6   12
7   94
8   70
9   86
10   66
11   46
12   54
13   82
14   77
15   67
16   53
17   55
18   98
19   13
20   38
DEPOT_SECTION
    1
    -1
EOF